(define-fun
  u1
  ((x Int) (y Int)) Int (ite (<= x 0) y x))
(define-fun
  v1
  ((x Int) (y Int)) Int (u1 (- x y) x))
(define-fun-rec
  u0
  ((x Int) (y Int)) Int (ite (<= x 0) y (v1 (u0 (- x 1) y) x)))
(define-fun
  h2
  ((x Int)) Int x)
(define-fun
  h1
  ((x Int)) Int x)
(define-fun
  h0
  ((x Int)) Int (+ 1 (div (* x x) (+ 2 2))))
(define-fun
  v0
  ((x Int)) Int (u0 x (h0 x)))
(define-fun
  small
  ((x Int)) Int (div 1 (v0 x)))
(define-fun
  g3
  ((x Int)) Int x)
(define-fun
  g0
  ((x Int)) Int x)
(define-fun
  f3
  ((x Int) (y Int)) Int (+ (div (* (+ 2 y) y) (+ x y)) y))
(define-fun-rec
  u3
  ((x Int) (y Int)) Int (ite (<= x 0) y (f3 (u3 (- x 1) y) x)))
(define-fun
  v3
  ((x Int)) Int (u3 x 1))
(define-fun
  f2
  ((x Int)) Int (+ (- (v3 x) 1) x))
(define-fun-rec
  u2
  ((x Int) (y Int)) Int (ite (<= x 0) y (f2 (u2 (- x 1) y))))
(define-fun
  v2
  ((x Int)) Int (u2 2 x))
(define-fun
  fast
  ((x Int)) Int (mod (+ (+ (+ (mod (+ (v2 x) x) 2) x) 1) x) 2))
(define-fun
  f1
  ((x Int) (y Int)) Int y)
(assert-not
  (forall ((c Int)) (or (not (>= c 0)) (= (small c) (fast c)))))
